
Gurobi 8.1.1 (win64) logging started 11/24/19 12:59:51

Changed value of parameter LogFile to logs/full/ip/full-05-30-1.log
   Prev: gurobi.log  Default: 
Changed value of parameter LogToConsole to 0
   Prev: 1  Min: 0  Max: 1  Default: 1
Changed value of parameter TimeLimit to 3600.0
   Prev: 1e+100  Min: 0.0  Max: 1e+100  Default: 1e+100
Optimize a model with 1119 rows, 517 columns and 4145 nonzeros
Variable types: 0 continuous, 517 integer (506 binary)
Coefficient statistics:
  Matrix range     [1e+00, 3e+02]
  Objective range  [1e+00, 1e+00]
  Bounds range     [1e+00, 1e+00]
  RHS range        [1e+00, 4e+02]
Presolve removed 3 rows and 3 columns
Presolve time: 0.02s
Presolved: 1116 rows, 514 columns, 4136 nonzeros
Variable types: 0 continuous, 514 integer (503 binary)

Root relaxation: objective 4.076923e+00, 441 iterations, 0.01 seconds

    Nodes    |    Current Node    |     Objective Bounds      |     Work
 Expl Unexpl |  Obj  Depth IntInf | Incumbent    BestBd   Gap | It/Node Time

     0     0    4.07692    0   75          -    4.07692      -     -    0s
H    0     0                      10.0000000    4.07692  59.2%     -    0s
     0     0    5.00000    0   11   10.00000    5.00000  50.0%     -    0s
     0     0    5.00000    0    4   10.00000    5.00000  50.0%     -    0s
H    0     0                       9.0000000    5.00000  44.4%     -    0s
H    0     0                       8.0000000    5.00000  37.5%     -    0s
     0     0    5.00000    0   11    8.00000    5.00000  37.5%     -    0s
H    0     0                       5.0000000    5.00000  0.00%     -    0s

Cutting planes:
  Gomory: 1
  MIR: 1

Explored 1 nodes (2344 simplex iterations) in 0.19 seconds
Thread count was 4 (of 4 available processors)

Solution count 4: 5 8 9 10 

Optimal solution found (tolerance 1.00e-04)
Best objective 5.000000000000e+00, best bound 5.000000000000e+00, gap 0.0000%
